23
 1 138 6
 2 92 4
 3 460 20
 4 92 4
 5 391 17
 6 368 16
 7 460 20
 8 161 7
 9 184 8
 10 322 14
 11 46 2
 12 437 19
 13 391 17
 14 184 8
 15 322 14
 16 437 19
 17 345 15
 18 92 4
 19 92 4
 20 46 2
 21 230 10
 22 368 16
 23 253 11
276